LAMMPS (16 Feb 2016)
# Initialize:

clear
units metal
dimension 3
boundary p p p
atom_style full

angle_style class2
bond_style class2

# Read the atom positions from data file
read_data data.lammps
  orthogonal box = (0 0 0) to (102.048 88.3736 103.72)
  4 by 2 by 5 MPI processor grid
  reading atoms ...
  81920 atoms
  scanning bonds ...
  4 = max bonds/atom
  scanning angles ...
  6 = max angles/atom
  reading bonds ...
  163840 bonds
  reading angles ...
  491520 angles
  4 = max # of 1-2 neighbors
  12 = max # of 1-3 neighbors
  48 = max # of 1-4 neighbors
  41 = max # of special neighbors

neighbor 2.1 bin
#neigh_modify once yes
#neigh_modify delay 10 check yes
#neigh_modify binsize 10
#neigh_modify binsize 6

#atom_modify sort 100 10

special_bonds lj/coul 1.0 1.0 1.0
  4 = max # of 1-2 neighbors
  4 = max # of special neighbors
pair_style coul/long 15
pair_coeff * *
pair_modify table 0
kspace_style pppm 1e-8

dump     1    all  custom 10000 dump.lammps   id   x      y      z
dump_modify 1 format "%6d %11.6lf %11.6lf %11.6lf"
restart 10000 large*.restart

group corner id 1
1 atoms in group corner
fix cornerfix corner setforce 0.0 0.0 0.0
thermo_style custom step pe ebond epair eangle

min_modify line quadratic
min_style cg


#Relax only atomic positions with low tolerance
minimize 1e-12 1e-12 5000000 100000
WARNING: Resetting reneighboring criteria during minimization (../min.cpp:168)
PPPM initialization ...
  G vector (1/distance) = 0.269984
  grid = 288 270 300
  stencil order = 5
  estimated absolute RMS force accuracy = 1.80327e-07
  estimated relative force accuracy = 1.2523e-08
  using double precision FFTs
  3d grid and FFT values/proc = 860378 622080
Neighbor list info ...
  1 neighbor list requests
  update every 1 steps, delay 0 steps, check yes
  max neighbors/atom: 2000, page size: 100000
  master list distance cutoff = 17.1
  ghost atom cutoff = 17.1
  binsize = 8.55 -> bins = 12 11 13
Memory usage per processor = 104.39 Mbytes
Step PotEng E_bond E_pair E_angle 
       0   -759360.12   -376789.55   -382752.21    181.63967 
     307   -761406.81    -380209.9   -381749.89    552.98122 
Loop time of 904.68 on 40 procs for 307 steps with 81920 atoms

99.9% CPU use with 40 MPI tasks x no OpenMP threads

Minimization stats:
  Stopping criterion = energy tolerance
  Energy initial, next-to-last, final = 
        -759360.120715     -761406.810472     -761406.810473
  Force two-norm initial, final = 283.815 0.00476406
  Force max component initial, final = 2.67478 4.83969e-05
  Final line search alpha, max atom move = 1 4.83969e-05
  Iterations, force evaluations = 307 614

MPI task timing breakdown:
Section |  min time  |  avg time  |  max time  |%varavg| %total
---------------------------------------------------------------
Pair    | 91.053     | 109.33     | 123.52     |  79.4 | 12.09
Bond    | 2.4092     | 2.7522     | 3.0995     |  10.2 |  0.30
Kspace  | 775.22     | 789.52     | 808.19     |  30.1 | 87.27
Neigh   | 0.1448     | 0.14518    | 0.14579    |   0.1 |  0.02
Comm    | 1.9792     | 2.1942     | 2.3784     |   6.4 |  0.24
Output  | 0          | 0          | 0          |   0.0 |  0.00
Modify  | 0.0055134  | 0.0060483  | 0.0074396  |   0.5 |  0.00
Other   |            | 0.7311     |            |       |  0.08

Nlocal:    2048 ave 2308 max 1864 min
Histogram: 3 8 2 6 6 8 3 0 2 2
Nghost:    20107 ave 20291 max 19847 min
Histogram: 2 2 0 3 8 6 6 2 8 3
Neighs:    1.88648e+06 ave 2.24657e+06 max 1.64752e+06 min
Histogram: 6 3 3 9 8 2 7 0 1 1

Total # of neighbors = 75459121
Ave neighs/atom = 921.132
Ave special neighs/atom = 4
Neighbor list builds = 1
Dangerous builds = 0

#Relax with fix box relax and higher tolerance
fix relax all box/relax fixedpoint 0 0 0 z 0
minimize 1e-25 1e-25 5000000 100000
WARNING: Resetting reneighboring criteria during minimization (../min.cpp:168)
PPPM initialization ...
  G vector (1/distance) = 0.269984
  grid = 288 270 300
  stencil order = 5
  estimated absolute RMS force accuracy = 1.80327e-07
  estimated relative force accuracy = 1.2523e-08
  using double precision FFTs
  3d grid and FFT values/proc = 860378 622080
Memory usage per processor = 104.39 Mbytes
Step PotEng E_bond E_pair E_angle 
     307   -761406.81    -380209.9   -381749.89    552.98122 
     470   -761554.44   -381886.41   -380203.04    535.01416 
Loop time of 481.575 on 40 procs for 163 steps with 81920 atoms

99.9% CPU use with 40 MPI tasks x no OpenMP threads

Minimization stats:
  Stopping criterion = linesearch alpha is zero
  Energy initial, next-to-last, final = 
        -761406.810473      -761554.44421      -761554.44421
  Force two-norm initial, final = 25355.3 0.336231
  Force max component initial, final = 25355.3 0.240781
  Final line search alpha, max atom move = 1.01377e-07 2.44097e-08
  Iterations, force evaluations = 163 231

MPI task timing breakdown:
Section |  min time  |  avg time  |  max time  |%varavg| %total
---------------------------------------------------------------
Pair    | 35.26      | 41.009     | 49.257     |  52.2 |  8.52
Bond    | 0.97946    | 1.0771     | 1.2165     |   5.8 |  0.22
Kspace  | 293.51     | 301.96     | 307.8      |  19.5 | 62.70
Neigh   | 0.28547    | 0.28636    | 0.28779    |   0.1 |  0.06
Comm    | 0.76722    | 0.84569    | 0.918      |   4.2 |  0.18
Output  | 0          | 0          | 0          |   0.0 |  0.00
Modify  | 0.0018764  | 0.0021389  | 0.0026805  |   0.3 |  0.00
Other   |            | 136.4      |            |       | 28.32

Nlocal:    2048 ave 2313 max 1864 min
Histogram: 3 7 4 5 7 4 6 1 1 2
Nghost:    20107 ave 20291 max 19842 min
Histogram: 2 1 1 6 4 7 5 4 7 3
Neighs:    1.87002e+06 ave 2.23001e+06 max 1.62664e+06 min
Histogram: 6 3 4 8 7 4 2 3 1 2

Total # of neighbors = 74800713
Ave neighs/atom = 913.095
Ave special neighs/atom = 4
Neighbor list builds = 2
Dangerous builds = 0

#Relax with with nreset and high tolerance
fix relax all box/relax fixedpoint 0 0 0 z 0 nreset 100
minimize 1e-25 1e-25 5000000 100000
WARNING: Resetting reneighboring criteria during minimization (../min.cpp:168)
PPPM initialization ...
  G vector (1/distance) = 0.269859
  grid = 288 270 300
  stencil order = 5
  estimated absolute RMS force accuracy = 1.82127e-07
  estimated relative force accuracy = 1.2648e-08
  using double precision FFTs
  3d grid and FFT values/proc = 860378 622080
Memory usage per processor = 104.39 Mbytes
Step PotEng E_bond E_pair E_angle 
     470   -761554.44   -381886.41   -380203.05    535.01416 
     471   -761554.44   -381886.41   -380203.05    535.01416 
Loop time of 53.5161 on 40 procs for 1 steps with 81920 atoms

99.9% CPU use with 40 MPI tasks x no OpenMP threads

Minimization stats:
  Stopping criterion = linesearch alpha is zero
  Energy initial, next-to-last, final = 
        -761554.444758     -761554.444758     -761554.444758
  Force two-norm initial, final = 0.337933 0.337933
  Force max component initial, final = 0.243153 0.243153
  Final line search alpha, max atom move = 1.00406e-07 2.44141e-08
  Iterations, force evaluations = 1 25

MPI task timing breakdown:
Section |  min time  |  avg time  |  max time  |%varavg| %total
---------------------------------------------------------------
Pair    | 3.9312     | 4.5779     | 5.4986     |  19.5 |  8.55
Bond    | 0.10994    | 0.12067    | 0.13719    |   1.9 |  0.23
Kspace  | 32.803     | 33.748     | 34.405     |   7.3 | 63.06
Neigh   | 0.1422     | 0.14263    | 0.14361    |   0.1 |  0.27
Comm    | 0.090783   | 0.098965   | 0.10584    |   1.3 |  0.18
Output  | 0          | 0          | 0          |   0.0 |  0.00
Modify  | 0.00020719 | 0.00023715 | 0.00028706 |   0.1 |  0.00
Other   |            | 14.83      |            |       | 27.71

Nlocal:    2048 ave 2313 max 1864 min
Histogram: 3 7 4 5 7 4 6 1 1 2
Nghost:    20107 ave 20291 max 19842 min
Histogram: 2 1 1 6 4 7 5 4 7 3
Neighs:    1.87002e+06 ave 2.23001e+06 max 1.62664e+06 min
Histogram: 6 3 4 8 7 4 2 3 1 2

Total # of neighbors = 74800713
Ave neighs/atom = 913.095
Ave special neighs/atom = 4
Neighbor list builds = 1
Dangerous builds = 0


variable lengthx equal "lx"
variable lengthy equal "ly"
variable lengthz equal "lz"

print "a= ${lengthx};"
a= 102.047996521;
print "b= ${lengthy};"
b= 88.373565674;
print "c= ${lengthz};"
c= 104.923750079731;
Total wall time: 0:24:07
