LAMMPS (16 Feb 2016)
# Initialize:

clear
units metal
dimension 3
boundary p p p
atom_style full

angle_style class2
bond_style class2

# Read the atom positions from data file
read_data data.lammps
  orthogonal box = (0 0 0) to (204.096 176.747 103.72)
  2 by 2 by 2 MPI processor grid
  reading atoms ...
  327680 atoms
  scanning bonds ...
  4 = max bonds/atom
  scanning angles ...
  6 = max angles/atom
  reading bonds ...
  655360 bonds
  reading angles ...
  1966080 angles
  4 = max # of 1-2 neighbors
  12 = max # of 1-3 neighbors
  48 = max # of 1-4 neighbors
  41 = max # of special neighbors

neighbor 2.1 bin
#neigh_modify once yes
#neigh_modify delay 10 check yes
#neigh_modify binsize 10
#neigh_modify binsize 6

#atom_modify sort 100 10

special_bonds lj/coul 1.0 1.0 1.0
  4 = max # of 1-2 neighbors
  4 = max # of special neighbors
pair_style coul/long 15
pair_coeff * *
pair_modify table 0
kspace_style pppm 1e-8

dump     1    all  custom 10000 dump.lammps   id   x      y      z
dump_modify 1 format "%6d %11.6lf %11.6lf %11.6lf"
restart 10000 large*.restart

group corner id 1
1 atoms in group corner
fix cornerfix corner setforce 0.0 0.0 0.0
thermo_style custom step pe ebond epair eangle

min_modify line quadratic
min_style cg


#Relax only atomic positions with low tolerance
minimize 1e-12 1e-12 5000000 100000
WARNING: Resetting reneighboring criteria during minimization (../min.cpp:168)
PPPM initialization ...
  G vector (1/distance) = 0.271144
  grid = 576 500 360
  stencil order = 5
  estimated absolute RMS force accuracy = 1.70551e-07
  estimated relative force accuracy = 1.18441e-08
  using double precision FFTs
  3d grid and FFT values/proc = 15061527 12960000
Neighbor list info ...
  1 neighbor list requests
  update every 1 steps, delay 0 steps, check yes
  max neighbors/atom: 2000, page size: 100000
  master list distance cutoff = 17.1
  ghost atom cutoff = 17.1
  binsize = 8.55 -> bins = 24 21 13
Memory usage per processor = 1763.27 Mbytes
Step PotEng E_bond E_pair E_angle 
       0   -3220723.6   -1549176.8   -1672637.6     1090.826 
     517   -3239996.9   -1583397.2   -1662478.8    5879.0755 
Loop time of 34935.1 on 8 procs for 517 steps with 327680 atoms

99.9% CPU use with 8 MPI tasks x no OpenMP threads

Minimization stats:
  Stopping criterion = energy tolerance
  Energy initial, next-to-last, final = 
        -3220723.60624     -3239996.92206     -3239996.92206
  Force two-norm initial, final = 850.804 0.00941399
  Force max component initial, final = 2.66745 5.00991e-05
  Final line search alpha, max atom move = 1 5.00991e-05
  Iterations, force evaluations = 517 1033

MPI task timing breakdown:
Section |  min time  |  avg time  |  max time  |%varavg| %total
---------------------------------------------------------------
Pair    | 3599.8     | 3795.7     | 3953       | 211.4 | 10.87
Bond    | 100.59     | 105.12     | 108.39     |  28.4 |  0.30
Kspace  | 30841      | 31002      | 31202      |  75.6 | 88.74
Neigh   | 2.8917     | 2.9027     | 2.9126     |   0.6 |  0.01
Comm    | 17.203     | 17.672     | 18.287     |   9.5 |  0.05
Output  | 0          | 0          | 0          |   0.0 |  0.00
Modify  | 0.15578    | 0.1695     | 0.18805    |   2.3 |  0.00
Other   |            | 11.85      |            |       |  0.03

Nlocal:    40960 ave 41100 max 40823 min
Histogram: 1 0 3 0 0 1 1 0 0 2
Nghost:    83879 ave 84016 max 83739 min
Histogram: 2 0 0 1 1 0 0 3 0 1
Neighs:    3.78055e+07 ave 3.79543e+07 max 3.7646e+07 min
Histogram: 1 0 1 2 0 1 0 1 0 2

Total # of neighbors = 302443850
Ave neighs/atom = 922.985
Ave special neighs/atom = 4
Neighbor list builds = 1
Dangerous builds = 0

#Relax with fix box relax and higher tolerance
fix relax all box/relax fixedpoint 0 0 0 x 0 y 0 z 0
minimize 1e-25 1e-25 5000000 100000
WARNING: Resetting reneighboring criteria during minimization (../min.cpp:168)
PPPM initialization ...
  G vector (1/distance) = 0.271144
  grid = 576 500 360
  stencil order = 5
  estimated absolute RMS force accuracy = 1.70551e-07
  estimated relative force accuracy = 1.18441e-08
  using double precision FFTs
  3d grid and FFT values/proc = 15061527 12960000
Memory usage per processor = 1763.27 Mbytes
Step PotEng E_bond E_pair E_angle 
     517   -3239996.9   -1583397.2   -1662478.8    5879.0755 
    6420   -3251217.1   -1633062.3   -1624006.1    5851.3318 
Loop time of 535498 on 8 procs for 5903 steps with 327680 atoms

99.9% CPU use with 8 MPI tasks x no OpenMP threads

Minimization stats:
  Stopping criterion = linesearch alpha is zero
  Energy initial, next-to-last, final = 
        -3239996.92206     -3251217.07435     -3251217.07435
  Force two-norm initial, final = 549034 3.22247
  Force max component initial, final = 322642 2.28153
  Final line search alpha, max atom move = 8.24253e-10 1.88056e-09
  Iterations, force evaluations = 5903 11584

MPI task timing breakdown:
Section |  min time  |  avg time  |  max time  |%varavg| %total
---------------------------------------------------------------
Pair    | 39339      | 41344      | 45374      | 873.9 |  7.72
Bond    | 1226.4     | 1296.4     | 1447.4     | 195.4 |  0.24
Kspace  | 3.4562e+05 | 3.4982e+05 | 3.5188e+05 | 313.4 | 65.33
Neigh   | 27.715     | 27.801     | 27.875     |   1.0 |  0.01
Comm    | 230.86     | 248.5      | 268.91     |  75.1 |  0.05
Output  | 0          | 0          | 0          |   0.0 |  0.00
Modify  | 1.7525     | 2.151      | 2.7082     |  24.9 |  0.00
Other   |            | 1.428e+05  |            |       | 26.66

Nlocal:    40960 ave 41092 max 40829 min
Histogram: 1 1 2 0 0 1 0 1 0 2
Nghost:    83783.5 ave 83885 max 83660 min
Histogram: 2 0 0 1 0 1 0 1 1 2
Neighs:    3.50604e+07 ave 3.50968e+07 max 3.4989e+07 min
Histogram: 1 0 0 2 0 0 0 0 2 3

Total # of neighbors = 280483095
Ave neighs/atom = 855.966
Ave special neighs/atom = 4
Neighbor list builds = 10
Dangerous builds = 0

#Relax with with nreset and high tolerance
fix relax all box/relax fixedpoint 0 0 0 x 0 y 0 z 0 nreset 100
minimize 1e-25 1e-25 5000000 100000
WARNING: Resetting reneighboring criteria during minimization (../min.cpp:168)
PPPM initialization ...
  G vector (1/distance) = 0.270683
  grid = 576 512 360
  stencil order = 5
  estimated absolute RMS force accuracy = 1.74542e-07
  estimated relative force accuracy = 1.21213e-08
  using double precision FFTs
  3d grid and FFT values/proc = 15407769 13271040
Memory usage per processor = 1802.88 Mbytes
Step PotEng E_bond E_pair E_angle 
    6420   -3251217.1   -1633062.3   -1624006.1    5851.3318 
    6428   -3251217.1   -1633062.5   -1624005.8    5851.2388 
Loop time of 2920.65 on 8 procs for 8 steps with 327680 atoms

99.8% CPU use with 8 MPI tasks x no OpenMP threads

Minimization stats:
  Stopping criterion = linesearch alpha is zero
  Energy initial, next-to-last, final = 
        -3251217.08165     -3251217.08316     -3251217.08316
  Force two-norm initial, final = 3.28425 0.876132
  Force max component initial, final = 2.32504 0.813615
  Final line search alpha, max atom move = 1.43397e-08 1.1667e-08
  Iterations, force evaluations = 8 43

MPI task timing breakdown:
Section |  min time  |  avg time  |  max time  |%varavg| %total
---------------------------------------------------------------
Pair    | 146.33     | 152.96     | 164.26     |  41.4 |  5.24
Bond    | 4.7433     | 5.027      | 5.6897     |  13.5 |  0.17
Kspace  | 2209.9     | 2222       | 2228.8     |  11.5 | 76.08
Neigh   | 2.5467     | 2.5513     | 2.5559     |   0.2 |  0.09
Comm    | 0.91131    | 0.97314    | 1.0489     |   4.6 |  0.03
Output  | 0          | 0          | 0          |   0.0 |  0.00
Modify  | 0.006705   | 0.0080814  | 0.0098648  |   1.4 |  0.00
Other   |            | 537.2      |            |       | 18.39

Nlocal:    40960 ave 41092 max 40829 min
Histogram: 1 1 2 0 0 1 0 1 0 2
Nghost:    83783.5 ave 83885 max 83660 min
Histogram: 2 0 0 1 0 1 0 1 1 2
Neighs:    3.50604e+07 ave 3.50968e+07 max 3.4989e+07 min
Histogram: 1 0 0 2 0 0 0 0 2 3

Total # of neighbors = 280483002
Ave neighs/atom = 855.966
Ave special neighs/atom = 4
Neighbor list builds = 1
Dangerous builds = 0


variable lengthx equal "lx"
variable lengthy equal "ly"
variable lengthz equal "lz"

print "a= ${lengthx};"
a= 209.025312805454;
print "b= ${lengthy};"
b= 181.020226440515;
print "c= ${lengthz};"
c= 106.038270340126;
Total wall time: 159:18:34
