LAMMPS (16 Feb 2016)
# Initialize:

clear
units metal
dimension 3
boundary p p p
atom_style full

angle_style class2
bond_style class2

# Read the atom positions from data file
read_data data.lammps
  orthogonal box = (0 0 0) to (204.096 176.747 103.72)
  2 by 2 by 2 MPI processor grid
  reading atoms ...
  327680 atoms
  scanning bonds ...
  4 = max bonds/atom
  scanning angles ...
  6 = max angles/atom
  reading bonds ...
  655360 bonds
  reading angles ...
  1966080 angles
  4 = max # of 1-2 neighbors
  12 = max # of 1-3 neighbors
  48 = max # of 1-4 neighbors
  41 = max # of special neighbors

neighbor 2.1 bin
#neigh_modify once yes
#neigh_modify delay 10 check yes
#neigh_modify binsize 10
#neigh_modify binsize 6

#atom_modify sort 100 10

special_bonds lj/coul 1.0 1.0 1.0
  4 = max # of 1-2 neighbors
  4 = max # of special neighbors
pair_style coul/long 15
pair_coeff * *
pair_modify table 0
kspace_style pppm 1e-8

dump     1    all  custom 10000 dump.lammps   id   x      y      z
dump_modify 1 format "%6d %11.6lf %11.6lf %11.6lf"
restart 10000 large*.restart

group corner id 1
1 atoms in group corner
fix cornerfix corner setforce 0.0 0.0 0.0
thermo_style custom step pe ebond epair eangle

min_modify line quadratic
min_style cg


#Relax only atomic positions with low tolerance
minimize 1e-12 1e-12 5000000 100000
WARNING: Resetting reneighboring criteria during minimization (../min.cpp:168)
PPPM initialization ...
  G vector (1/distance) = 0.269768
  grid = 540 480 360
  stencil order = 5
  estimated absolute RMS force accuracy = 1.78229e-07
  estimated relative force accuracy = 1.23773e-08
  using double precision FFTs
  3d grid and FFT values/proc = 13612483 11664000
Neighbor list info ...
  1 neighbor list requests
  update every 1 steps, delay 0 steps, check yes
  max neighbors/atom: 2000, page size: 100000
  master list distance cutoff = 17.1
  ghost atom cutoff = 17.1
  binsize = 8.55 -> bins = 24 21 13
Memory usage per processor = 1597.99 Mbytes
Step PotEng E_bond E_pair E_angle 
       0   -2965950.6   -1490770.9   -1475763.7    583.95145 
     140     -2968490   -1494035.8   -1474876.7     422.5074 
Loop time of 10664.5 on 8 procs for 140 steps with 327680 atoms

99.9% CPU use with 8 MPI tasks x no OpenMP threads

Minimization stats:
  Stopping criterion = energy tolerance
  Energy initial, next-to-last, final = 
        -2965950.63587     -2968490.00528     -2968490.00529
  Force two-norm initial, final = 408.6 0.00903745
  Force max component initial, final = 2.6439 4.8635e-05
  Final line search alpha, max atom move = 1 4.8635e-05
  Iterations, force evaluations = 140 280

MPI task timing breakdown:
Section |  min time  |  avg time  |  max time  |%varavg| %total
---------------------------------------------------------------
Pair    | 953.86     | 995.61     | 1039.9     |  88.4 |  9.34
Bond    | 25.757     | 27.664     | 30.119     |  26.7 |  0.26
Kspace  | 9580       | 9626.6     | 9671.2     |  29.7 | 90.27
Neigh   | 2.9734     | 2.9803     | 2.9899     |   0.3 |  0.03
Comm    | 4.9773     | 5.8496     | 6.5362     |  23.2 |  0.05
Output  | 0          | 0          | 0          |   0.0 |  0.00
Modify  | 0.03455    | 0.045476   | 0.064205   |   4.5 |  0.00
Other   |            | 5.719      |            |       |  0.05

Nlocal:    40960 ave 42949 max 39220 min
Histogram: 1 1 1 1 0 1 1 0 1 1
Nghost:    83879 ave 85619 max 81890 min
Histogram: 1 1 0 1 1 0 1 1 1 1
Neighs:    3.77772e+07 ave 3.9615e+07 max 3.61582e+07 min
Histogram: 1 1 1 1 0 1 1 0 1 1

Total # of neighbors = 302217719
Ave neighs/atom = 922.295
Ave special neighs/atom = 4
Neighbor list builds = 1
Dangerous builds = 0

#Relax with fix box relax and higher tolerance
fix relax all box/relax fixedpoint 0 0 0 z 0
minimize 1e-25 1e-25 5000000 100000
WARNING: Resetting reneighboring criteria during minimization (../min.cpp:168)
PPPM initialization ...
  G vector (1/distance) = 0.269768
  grid = 540 480 360
  stencil order = 5
  estimated absolute RMS force accuracy = 1.78229e-07
  estimated relative force accuracy = 1.23773e-08
  using double precision FFTs
  3d grid and FFT values/proc = 13612483 11664000
Memory usage per processor = 1598.02 Mbytes
Step PotEng E_bond E_pair E_angle 
     140     -2968490   -1494035.8   -1474876.7     422.5074 
     165   -2968502.1   -1494852.3   -1474039.6     389.7867 
Loop time of 3538.54 on 8 procs for 25 steps with 327680 atoms

99.9% CPU use with 8 MPI tasks x no OpenMP threads

Minimization stats:
  Stopping criterion = linesearch alpha is zero
  Energy initial, next-to-last, final = 
        -2968490.00529     -2968502.08916     -2968502.08916
  Force two-norm initial, final = 14721.2 1.09525
  Force max component initial, final = 14721.2 1.08957
  Final line search alpha, max atom move = 5.60177e-09 6.10352e-09
  Iterations, force evaluations = 25 62

MPI task timing breakdown:
Section |  min time  |  avg time  |  max time  |%varavg| %total
---------------------------------------------------------------
Pair    | 217.73     | 228.23     | 261.37     |  91.2 |  6.45
Bond    | 6.1523     | 6.7401     | 8.0014     |  22.8 |  0.19
Kspace  | 2518.2     | 2552.9     | 2563.9     |  28.6 | 72.15
Neigh   | 2.8965     | 2.9065     | 2.9191     |   0.4 |  0.08
Comm    | 1.3153     | 1.5507     | 1.8917     |  15.1 |  0.04
Output  | 0          | 0          | 0          |   0.0 |  0.00
Modify  | 0.0075438  | 0.011099   | 0.017576   |   3.0 |  0.00
Other   |            | 746.2      |            |       | 21.09

Nlocal:    40960 ave 42949 max 39219 min
Histogram: 1 1 1 1 0 1 1 0 1 1
Nghost:    83879 ave 85620 max 81890 min
Histogram: 1 1 0 1 1 0 1 1 1 1
Neighs:    3.77653e+07 ave 3.9615e+07 max 3.61294e+07 min
Histogram: 1 1 1 1 0 1 1 0 1 1

Total # of neighbors = 302122401
Ave neighs/atom = 922.004
Ave special neighs/atom = 4
Neighbor list builds = 1
Dangerous builds = 0

#Relax with with nreset and high tolerance
fix relax all box/relax fixedpoint 0 0 0 z 0 nreset 100
minimize 1e-25 1e-25 5000000 100000
WARNING: Resetting reneighboring criteria during minimization (../min.cpp:168)
PPPM initialization ...
  G vector (1/distance) = 0.269755
  grid = 540 480 360
  stencil order = 5
  estimated absolute RMS force accuracy = 1.78363e-07
  estimated relative force accuracy = 1.23866e-08
  using double precision FFTs
  3d grid and FFT values/proc = 13612483 11664000
Memory usage per processor = 1598.02 Mbytes
Step PotEng E_bond E_pair E_angle 
     165   -2968502.1   -1494852.3   -1474039.6     389.7867 
     166   -2968502.1   -1494852.3   -1474039.6     389.7867 
Loop time of 1794.05 on 8 procs for 1 steps with 327680 atoms

99.9% CPU use with 8 MPI tasks x no OpenMP threads

Minimization stats:
  Stopping criterion = linesearch alpha is zero
  Energy initial, next-to-last, final = 
        -2968502.08938     -2968502.08938     -2968502.08938
  Force two-norm initial, final = 1.09676 1.09676
  Force max component initial, final = 1.09109 1.09109
  Final line search alpha, max atom move = 5.59398e-09 6.10352e-09
  Iterations, force evaluations = 1 29

MPI task timing breakdown:
Section |  min time  |  avg time  |  max time  |%varavg| %total
---------------------------------------------------------------
Pair    | 103.74     | 109.25     | 124.99     |  62.7 |  6.09
Bond    | 2.9365     | 3.24       | 3.9173     |  17.2 |  0.18
Kspace  | 1315.6     | 1332.2     | 1337.8     |  18.9 | 74.26
Neigh   | 3.1678     | 3.1858     | 3.1979     |   0.6 |  0.18
Comm    | 0.68354    | 0.78979    | 0.95491    |  10.2 |  0.04
Output  | 0          | 0          | 0          |   0.0 |  0.00
Modify  | 0.0036497  | 0.0055624  | 0.0082693  |   1.9 |  0.00
Other   |            | 345.4      |            |       | 19.25

Nlocal:    40960 ave 42949 max 39219 min
Histogram: 1 1 1 1 0 1 1 0 1 1
Nghost:    83879 ave 85620 max 81890 min
Histogram: 1 1 0 1 1 0 1 1 1 1
Neighs:    3.77653e+07 ave 3.9615e+07 max 3.61294e+07 min
Histogram: 1 1 1 1 0 1 1 0 1 1

Total # of neighbors = 302122401
Ave neighs/atom = 922.004
Ave special neighs/atom = 4
Neighbor list builds = 1
Dangerous builds = 0


variable lengthx equal "lx"
variable lengthy equal "ly"
variable lengthz equal "lz"

print "a= ${lengthx};"
a= 204.095993042;
print "b= ${lengthy};"
b= 176.747131348;
print "c= ${lengthz};"
c= 103.890201268622;
Total wall time: 4:29:40
