LAMMPS (16 Feb 2016)
# Initialize:

clear
units metal
dimension 3
boundary p p p
atom_style full

angle_style class2
bond_style class2

# Read the atom positions from data file
read_data data.lammps
  orthogonal box = (0 0 0) to (204.096 176.747 103.72)
  2 by 2 by 2 MPI processor grid
  reading atoms ...
  327680 atoms
  scanning bonds ...
  4 = max bonds/atom
  scanning angles ...
  6 = max angles/atom
  reading bonds ...
  655360 bonds
  reading angles ...
  1966080 angles
  4 = max # of 1-2 neighbors
  12 = max # of 1-3 neighbors
  48 = max # of 1-4 neighbors
  41 = max # of special neighbors

neighbor 2.1 bin
#neigh_modify once yes
#neigh_modify delay 10 check yes
#neigh_modify binsize 10
#neigh_modify binsize 6

#atom_modify sort 100 10

special_bonds lj/coul 1.0 1.0 1.0
  4 = max # of 1-2 neighbors
  4 = max # of special neighbors
pair_style coul/long 15
pair_coeff * *
pair_modify table 0
kspace_style pppm 1e-8

dump     1    all  custom 10000 dump.lammps   id   x      y      z
dump_modify 1 format "%6d %11.6lf %11.6lf %11.6lf"
restart 10000 large*.restart

group corner id 1
1 atoms in group corner
fix cornerfix corner setforce 0.0 0.0 0.0
thermo_style custom step pe ebond epair eangle

min_modify line quadratic
min_style cg


#Relax only atomic positions with low tolerance
minimize 1e-12 1e-12 5000000 100000
WARNING: Resetting reneighboring criteria during minimization (../min.cpp:168)
PPPM initialization ...
  G vector (1/distance) = 0.269764
  grid = 540 480 360
  stencil order = 5
  estimated absolute RMS force accuracy = 1.77624e-07
  estimated relative force accuracy = 1.23353e-08
  using double precision FFTs
  3d grid and FFT values/proc = 13612483 11664000
Neighbor list info ...
  1 neighbor list requests
  update every 1 steps, delay 0 steps, check yes
  max neighbors/atom: 2000, page size: 100000
  master list distance cutoff = 17.1
  ghost atom cutoff = 17.1
  binsize = 8.55 -> bins = 24 21 13
Memory usage per processor = 1597.99 Mbytes
Step PotEng E_bond E_pair E_angle 
       0   -2959250.7   -1489234.7   -1470586.6    570.63975 
     130   -2961221.4   -1491453.4   -1470013.4    245.35068 
Loop time of 10415.7 on 8 procs for 130 steps with 327680 atoms

93.7% CPU use with 8 MPI tasks x no OpenMP threads

Minimization stats:
  Stopping criterion = energy tolerance
  Energy initial, next-to-last, final = 
        -2959250.70044      -2961221.4223     -2961221.42231
  Force two-norm initial, final = 390.275 0.0090494
  Force max component initial, final = 2.56405 5.24861e-05
  Final line search alpha, max atom move = 1 5.24861e-05
  Iterations, force evaluations = 130 260

MPI task timing breakdown:
Section |  min time  |  avg time  |  max time  |%varavg| %total
---------------------------------------------------------------
Pair    | 902.84     | 939.76     | 988.18     |  92.9 |  9.02
Bond    | 24.92      | 26.428     | 27.752     |  18.4 |  0.25
Kspace  | 8605.5     | 8655.5     | 8694.4     |  31.7 | 83.10
Neigh   | 3.2292     | 3.2353     | 3.2398     |   0.2 |  0.03
Comm    | 5.9892     | 6.4092     | 6.7926     |  10.6 |  0.06
Output  | 0          | 0          | 0          |   0.0 |  0.00
Modify  | 0.041311   | 0.047956   | 0.054293   |   2.4 |  0.00
Other   |            | 784.4      |            |       |  7.53

Nlocal:    40960 ave 43121 max 39411 min
Histogram: 2 1 0 1 1 1 0 1 0 1
Nghost:    83879 ave 85428 max 81718 min
Histogram: 1 0 1 0 1 1 1 0 1 2
Neighs:    3.77836e+07 ave 3.97839e+07 max 3.63542e+07 min
Histogram: 2 1 0 1 1 1 0 1 0 1

Total # of neighbors = 302269164
Ave neighs/atom = 922.452
Ave special neighs/atom = 4
Neighbor list builds = 1
Dangerous builds = 0

#Relax with fix box relax and higher tolerance
fix relax all box/relax fixedpoint 0 0 0 z 0
minimize 1e-25 1e-25 5000000 100000
WARNING: Resetting reneighboring criteria during minimization (../min.cpp:168)
PPPM initialization ...
  G vector (1/distance) = 0.269764
  grid = 540 480 360
  stencil order = 5
  estimated absolute RMS force accuracy = 1.77624e-07
  estimated relative force accuracy = 1.23353e-08
  using double precision FFTs
  3d grid and FFT values/proc = 13612483 11664000
Memory usage per processor = 1598.02 Mbytes
Step PotEng E_bond E_pair E_angle 
     130   -2961221.4   -1491453.4   -1470013.4    245.35068 
     140   -2961223.7   -1491800.6   -1469653.3    230.24666 
Loop time of 1733.43 on 8 procs for 10 steps with 327680 atoms

98.7% CPU use with 8 MPI tasks x no OpenMP threads

Minimization stats:
  Stopping criterion = linesearch alpha is zero
  Energy initial, next-to-last, final = 
        -2961221.42231     -2961223.68329     -2961223.68329
  Force two-norm initial, final = 6377.16 1.99179
  Force max component initial, final = 6377.16 1.98975
  Final line search alpha, max atom move = 3.03254e-09 6.03399e-09
  Iterations, force evaluations = 10 41

MPI task timing breakdown:
Section |  min time  |  avg time  |  max time  |%varavg| %total
---------------------------------------------------------------
Pair    | 140.58     | 147.9      | 155.43     |  39.5 |  8.53
Bond    | 3.8571     | 4.2461     | 4.5892     |  10.8 |  0.24
Kspace  | 1063.6     | 1071.4     | 1079.2     |  15.4 | 61.81
Neigh   | 3.2163     | 3.2223     | 3.2274     |   0.2 |  0.19
Comm    | 0.63759    | 0.69601    | 0.74287    |   3.8 |  0.04
Output  | 0          | 0          | 0          |   0.0 |  0.00
Modify  | 0.0045033  | 0.0059119  | 0.0071001  |   1.1 |  0.00
Other   |            | 505.9      |            |       | 29.19

Nlocal:    40960 ave 43121 max 39411 min
Histogram: 2 1 0 1 1 1 0 1 0 1
Nghost:    83879 ave 85428 max 81718 min
Histogram: 1 0 1 0 1 1 1 0 1 2
Neighs:    3.77822e+07 ave 3.97839e+07 max 3.63512e+07 min
Histogram: 2 1 0 1 1 1 0 1 0 1

Total # of neighbors = 302257783
Ave neighs/atom = 922.418
Ave special neighs/atom = 4
Neighbor list builds = 1
Dangerous builds = 0

#Relax with with nreset and high tolerance
fix relax all box/relax fixedpoint 0 0 0 z 0 nreset 100
minimize 1e-25 1e-25 5000000 100000
WARNING: Resetting reneighboring criteria during minimization (../min.cpp:168)
PPPM initialization ...
  G vector (1/distance) = 0.269759
  grid = 540 480 360
  stencil order = 5
  estimated absolute RMS force accuracy = 1.77681e-07
  estimated relative force accuracy = 1.23393e-08
  using double precision FFTs
  3d grid and FFT values/proc = 13612483 11664000
Memory usage per processor = 1598.02 Mbytes
Step PotEng E_bond E_pair E_angle 
     140   -2961223.7   -1491800.6   -1469653.3    230.24666 
     141   -2961223.7   -1491800.6   -1469653.3    230.24666 
Loop time of 1335 on 8 procs for 1 steps with 327680 atoms

99.9% CPU use with 8 MPI tasks x no OpenMP threads

Minimization stats:
  Stopping criterion = linesearch alpha is zero
  Energy initial, next-to-last, final = 
        -2961223.68338     -2961223.68338     -2961223.68338
  Force two-norm initial, final = 1.99309 1.99309
  Force max component initial, final = 1.99104 1.99104
  Final line search alpha, max atom move = 3.06549e-09 6.10352e-09
  Iterations, force evaluations = 1 29

MPI task timing breakdown:
Section |  min time  |  avg time  |  max time  |%varavg| %total
---------------------------------------------------------------
Pair    | 101.36     | 106.08     | 111.89     |  38.2 |  7.95
Bond    | 2.8511     | 3.1329     | 3.4217     |  10.8 |  0.23
Kspace  | 876.76     | 882.83     | 887.74     |  14.0 | 66.13
Neigh   | 2.5059     | 2.5133     | 2.52       |   0.4 |  0.19
Comm    | 0.54878    | 0.61854    | 0.68123    |   6.6 |  0.05
Output  | 0          | 0          | 0          |   0.0 |  0.00
Modify  | 0.0036006  | 0.0049393  | 0.0068793  |   1.6 |  0.00
Other   |            | 339.8      |            |       | 25.45

Nlocal:    40960 ave 43121 max 39411 min
Histogram: 2 1 0 1 1 1 0 1 0 1
Nghost:    83879 ave 85428 max 81718 min
Histogram: 1 0 1 0 1 1 1 0 1 2
Neighs:    3.77822e+07 ave 3.97839e+07 max 3.63512e+07 min
Histogram: 2 1 0 1 1 1 0 1 0 1

Total # of neighbors = 302257783
Ave neighs/atom = 922.418
Ave special neighs/atom = 4
Neighbor list builds = 1
Dangerous builds = 0


variable lengthx equal "lx"
variable lengthy equal "ly"
variable lengthz equal "lz"

print "a= ${lengthx};"
a= 204.095993042;
print "b= ${lengthy};"
b= 176.747131348;
print "c= ${lengthz};"
c= 103.79355242656;
Total wall time: 12:20:27
