LAMMPS (16 Feb 2016)
# Initialize:

clear
units metal
dimension 3
boundary p p p
atom_style full

angle_style class2
bond_style class2

# Read the atom positions from data file
read_data data.lammps
  orthogonal box = (0 0 0) to (204.096 176.747 103.72)
  2 by 2 by 2 MPI processor grid
  reading atoms ...
  327680 atoms
  scanning bonds ...
  4 = max bonds/atom
  scanning angles ...
  6 = max angles/atom
  reading bonds ...
  655360 bonds
  reading angles ...
  1966080 angles
  4 = max # of 1-2 neighbors
  12 = max # of 1-3 neighbors
  48 = max # of 1-4 neighbors
  41 = max # of special neighbors

neighbor 2.1 bin
#neigh_modify once yes
#neigh_modify delay 10 check yes
#neigh_modify binsize 10
#neigh_modify binsize 6

#atom_modify sort 100 10

special_bonds lj/coul 1.0 1.0 1.0
  4 = max # of 1-2 neighbors
  4 = max # of special neighbors
pair_style coul/long 15
pair_coeff * *
pair_modify table 0
kspace_style pppm 1e-8

dump     1    all  custom 10000 dump.lammps   id   x      y      z
dump_modify 1 format "%6d %11.6lf %11.6lf %11.6lf"
restart 10000 large*.restart

group corner id 1
1 atoms in group corner
fix cornerfix corner setforce 0.0 0.0 0.0
thermo_style custom step pe ebond epair eangle

min_modify line quadratic
min_style cg


#Relax only atomic positions with low tolerance
minimize 1e-12 1e-12 5000000 100000
WARNING: Resetting reneighboring criteria during minimization (../min.cpp:168)
PPPM initialization ...
  G vector (1/distance) = 0.269764
  grid = 540 480 360
  stencil order = 5
  estimated absolute RMS force accuracy = 1.77643e-07
  estimated relative force accuracy = 1.23366e-08
  using double precision FFTs
  3d grid and FFT values/proc = 13612483 11664000
Neighbor list info ...
  1 neighbor list requests
  update every 1 steps, delay 0 steps, check yes
  max neighbors/atom: 2000, page size: 100000
  master list distance cutoff = 17.1
  ghost atom cutoff = 17.1
  binsize = 8.55 -> bins = 24 21 13
Memory usage per processor = 1597.99 Mbytes
Step PotEng E_bond E_pair E_angle 
       0   -2959462.1   -1489282.9   -1470750.3    571.12231 
     137   -2961450.7   -1491535.5   -1470166.8    251.59572 
Loop time of 9411.92 on 8 procs for 137 steps with 327680 atoms

99.8% CPU use with 8 MPI tasks x no OpenMP threads

Minimization stats:
  Stopping criterion = energy tolerance
  Energy initial, next-to-last, final = 
        -2959462.11744     -2961450.74093     -2961450.74094
  Force two-norm initial, final = 390.674 0.0087602
  Force max component initial, final = 2.59469 4.74345e-05
  Final line search alpha, max atom move = 1 4.74345e-05
  Iterations, force evaluations = 137 274

MPI task timing breakdown:
Section |  min time  |  avg time  |  max time  |%varavg| %total
---------------------------------------------------------------
Pair    | 924.27     | 972.7      | 1057.2     | 142.8 | 10.33
Bond    | 25.081     | 26.639     | 29.646     |  26.1 |  0.28
Kspace  | 8313.2     | 8401.1     | 8451.5     |  50.1 | 89.26
Neigh   | 2.963      | 2.9664     | 2.97       |   0.1 |  0.03
Comm    | 3.9801     | 4.3469     | 4.835      |  12.0 |  0.05
Output  | 0          | 0          | 0          |   0.0 |  0.00
Modify  | 0.033314   | 0.03901    | 0.050317   |   2.8 |  0.00
Other   |            | 4.082      |            |       |  0.04

Nlocal:    40960 ave 42447 max 39592 min
Histogram: 2 1 1 0 0 1 0 0 1 2
Nghost:    83879 ave 85247 max 82392 min
Histogram: 2 1 0 0 1 0 0 1 1 2
Neighs:    3.77835e+07 ave 3.91622e+07 max 3.6514e+07 min
Histogram: 2 2 0 0 0 1 0 0 1 2

Total # of neighbors = 302268264
Ave neighs/atom = 922.45
Ave special neighs/atom = 4
Neighbor list builds = 1
Dangerous builds = 0

#Relax with fix box relax and higher tolerance
fix relax all box/relax fixedpoint 0 0 0 z 0
minimize 1e-25 1e-25 5000000 100000
WARNING: Resetting reneighboring criteria during minimization (../min.cpp:168)
PPPM initialization ...
  G vector (1/distance) = 0.269764
  grid = 540 480 360
  stencil order = 5
  estimated absolute RMS force accuracy = 1.77643e-07
  estimated relative force accuracy = 1.23366e-08
  using double precision FFTs
  3d grid and FFT values/proc = 13612483 11664000
Memory usage per processor = 1598 Mbytes
Step PotEng E_bond E_pair E_angle 
     137   -2961450.7   -1491535.5   -1470166.8    251.59572 
     147   -2961453.2   -1491897.4   -1469791.7    235.89017 
Loop time of 1726.99 on 8 procs for 10 steps with 327680 atoms

99.9% CPU use with 8 MPI tasks x no OpenMP threads

Minimization stats:
  Stopping criterion = linesearch alpha is zero
  Energy initial, next-to-last, final = 
        -2961450.74094      -2961453.1936      -2961453.1936
  Force two-norm initial, final = 6642.17 0.597065
  Force max component initial, final = 6642.17 0.588905
  Final line search alpha, max atom move = 2.01651e-08 1.18754e-08
  Iterations, force evaluations = 10 39

MPI task timing breakdown:
Section |  min time  |  avg time  |  max time  |%varavg| %total
---------------------------------------------------------------
Pair    | 136.1      | 144.54     | 157.94     |  63.1 |  8.37
Bond    | 3.9641     | 4.2689     | 4.7053     |  12.8 |  0.25
Kspace  | 1131.2     | 1145       | 1153.8     |  23.3 | 66.30
Neigh   | 2.8375     | 2.8464     | 2.8569     |   0.4 |  0.16
Comm    | 0.76659    | 0.84207    | 0.92548    |   5.5 |  0.05
Output  | 0          | 0          | 0          |   0.0 |  0.00
Modify  | 0.0049231  | 0.0064496  | 0.0081031  |   1.5 |  0.00
Other   |            | 429.4      |            |       | 24.87

Nlocal:    40960 ave 42447 max 39592 min
Histogram: 2 1 1 0 0 1 0 0 1 2
Nghost:    83879 ave 85247 max 82392 min
Histogram: 2 1 0 0 1 0 0 1 1 2
Neighs:    3.77819e+07 ave 3.91622e+07 max 3.65107e+07 min
Histogram: 2 2 0 0 0 1 0 0 1 2

Total # of neighbors = 302255123
Ave neighs/atom = 922.409
Ave special neighs/atom = 4
Neighbor list builds = 1
Dangerous builds = 0

#Relax with with nreset and high tolerance
fix relax all box/relax fixedpoint 0 0 0 z 0 nreset 100
minimize 1e-25 1e-25 5000000 100000
WARNING: Resetting reneighboring criteria during minimization (../min.cpp:168)
PPPM initialization ...
  G vector (1/distance) = 0.269759
  grid = 540 480 360
  stencil order = 5
  estimated absolute RMS force accuracy = 1.77703e-07
  estimated relative force accuracy = 1.23408e-08
  using double precision FFTs
  3d grid and FFT values/proc = 13612483 11664000
Memory usage per processor = 1598 Mbytes
Step PotEng E_bond E_pair E_angle 
     147   -2961453.2   -1491897.4   -1469791.7    235.89017 
     150   -2961453.2   -1491897.5   -1469791.6    235.92692 
Loop time of 1361.73 on 8 procs for 3 steps with 327680 atoms

99.9% CPU use with 8 MPI tasks x no OpenMP threads

Minimization stats:
  Stopping criterion = linesearch alpha is zero
  Energy initial, next-to-last, final = 
         -2961453.1937      -2961453.1939      -2961453.1939
  Force two-norm initial, final = 0.597374 0.244065
  Force max component initial, final = 0.589218 0.237714
  Final line search alpha, max atom move = 2.05426e-07 4.88326e-08
  Iterations, force evaluations = 3 27

MPI task timing breakdown:
Section |  min time  |  avg time  |  max time  |%varavg| %total
---------------------------------------------------------------
Pair    | 95.464     | 100.39     | 105.65     |  35.7 |  7.37
Bond    | 2.7818     | 2.9641     | 3.1954     |   8.4 |  0.22
Kspace  | 933.55     | 939.06     | 944.2      |  12.1 | 68.96
Neigh   | 2.6284     | 2.6332     | 2.6398     |   0.2 |  0.19
Comm    | 0.56694    | 0.60478    | 0.62811    |   2.7 |  0.04
Output  | 0          | 0          | 0          |   0.0 |  0.00
Modify  | 0.003757   | 0.0043984  | 0.0049028  |   0.6 |  0.00
Other   |            | 316.1      |            |       | 23.21

Nlocal:    40960 ave 42447 max 39592 min
Histogram: 2 1 1 0 0 1 0 0 1 2
Nghost:    83879 ave 85247 max 82392 min
Histogram: 2 1 0 0 1 0 0 1 1 2
Neighs:    3.77819e+07 ave 3.91622e+07 max 3.65107e+07 min
Histogram: 2 2 0 0 0 1 0 0 1 2

Total # of neighbors = 302255117
Ave neighs/atom = 922.409
Ave special neighs/atom = 4
Neighbor list builds = 1
Dangerous builds = 0


variable lengthx equal "lx"
variable lengthy equal "ly"
variable lengthz equal "lz"

print "a= ${lengthx};"
a= 204.095993042;
print "b= ${lengthy};"
b= 176.747131348;
print "c= ${lengthz};"
c= 103.79661196958;
Total wall time: 3:30:46
